(declare-fun temp26874_1 () (_ BitVec 64))
(declare-fun temp26874_2 () (_ BitVec 64))
(declare-fun var77740 () (_ BitVec 64))
(declare-fun k!0 () Bool)
(declare-fun ARGNAME_input_1_NAMEEND_DIM () (_ BitVec 64))
(declare-fun ARGNAME_data_format_NAMEEND_STRFMT () (_ BitVec 64))
(declare-fun temp26874_3 () (_ BitVec 64))
(declare-fun ARGNAME_input_2_NAMEEND_DIM () (_ BitVec 64))
(declare-fun var77770 () (_ BitVec 64))
(declare-fun temp26874_4 () (_ BitVec 64))
(declare-fun temp26874_5 () (_ BitVec 64))
(declare-fun ARGNAME_input_1_NAMEEND_DIMSIZE
             ()
             (Array (_ BitVec 64) (_ BitVec 64)))
(declare-fun temp26874_6 () (_ BitVec 64))
(declare-fun temp26874_7 () (_ BitVec 64))
(declare-fun temp26874_8 () (_ BitVec 64))
(declare-fun temp26874_9 () (_ BitVec 64))
(declare-fun temp26874_10 () (_ BitVec 64))
(declare-fun temp26874_11 () (_ BitVec 64))
(declare-fun temp26874_12 () (_ BitVec 64))
(declare-fun temp26874_13 () (_ BitVec 64))
(declare-fun temp26874_14 () (_ BitVec 64))
(declare-fun temp26874_15 () (_ BitVec 64))
(declare-fun temp26874_16 () (_ BitVec 64))
(declare-fun temp26874_17 () (_ BitVec 64))
(declare-fun temp26874_18 () (_ BitVec 64))
(declare-fun var77799 () (_ BitVec 64))
(declare-fun temp26874_19 () (_ BitVec 64))
(declare-fun ARGNAME_input_2_NAMEEND_DIMSIZE
             ()
             (Array (_ BitVec 64) (_ BitVec 64)))
(declare-fun temp26874_20 () (_ BitVec 64))
(declare-fun temp26874_21 () (_ BitVec 64))
(declare-fun temp26874_22 () (_ BitVec 64))
(declare-fun temp26874_23 () (_ BitVec 64))
(declare-fun temp26874_24 () (_ BitVec 64))
(declare-fun temp26874_25 () (_ BitVec 64))
(declare-fun temp26874_26 () (_ BitVec 64))
(declare-fun temp26874_27 () (_ BitVec 64))
(declare-fun temp26874_28 () (_ BitVec 64))
(declare-fun temp26874_29 () (_ BitVec 64))
(declare-fun temp26874_30 () (_ BitVec 64))
(declare-fun temp26874_31 () (_ BitVec 64))
(declare-fun temp26874_32 () (_ BitVec 64))
(declare-fun var77832 () (_ BitVec 64))
(declare-fun temp26874_33 () (_ BitVec 64))
(declare-fun temp26874_34 () (_ BitVec 64))
(declare-fun var77833 () (_ BitVec 64))
(declare-fun var77834 () (_ BitVec 64))
(declare-fun temp26874_35 () (_ BitVec 64))
(declare-fun temp26874_36 () (_ BitVec 64))
(declare-fun var275510 () (_ BitVec 64))
(declare-fun temp26874_37 () (_ BitVec 64))
(declare-fun var275528 () (_ BitVec 64))
(declare-fun temp26874_38 () (_ BitVec 64))
(declare-fun temp26874_40 () (_ BitVec 64))
(declare-fun temp26874_39 () (_ BitVec 64))
(declare-fun temp26874_42 () (_ BitVec 64))
(declare-fun temp26874_41 () (_ BitVec 64))
(declare-fun temp26874_43 () (_ BitVec 64))
(declare-fun var406582 () (_ BitVec 64))
(declare-fun temp26874_44 () (_ BitVec 64))
(declare-fun var406600 () (_ BitVec 64))
(declare-fun temp26874_45 () (_ BitVec 64))
(declare-fun temp26874_46 () (_ BitVec 64))
(declare-fun var537654 () (_ BitVec 64))
(declare-fun temp26874_47 () (_ BitVec 64))
(declare-fun var537672 () (_ BitVec 64))
(declare-fun temp26874_48 () (_ BitVec 64))
(declare-fun temp26874_50 () (_ BitVec 64))
(declare-fun temp26874_49 () (_ BitVec 64))
(declare-fun temp26874_52 () (_ BitVec 64))
(declare-fun temp26874_51 () (_ BitVec 64))
(declare-fun temp26874_54 () (_ BitVec 64))
(declare-fun temp26874_53 () (_ BitVec 64))
(declare-fun temp26874_55 () (_ BitVec 64))
(declare-fun var795723 () (_ BitVec 64))
(declare-fun var795702 () (_ BitVec 64))
(declare-fun var664608 () (_ BitVec 64))
(declare-fun temp26874_56 () (_ BitVec 64))
(declare-fun temp26874_57 () (_ BitVec 64))
(declare-fun var861259 () (_ BitVec 64))
(declare-fun var861238 () (_ BitVec 64))
(declare-fun var664611 () (_ BitVec 64))
(declare-fun temp26874_58 () (_ BitVec 64))
(declare-fun temp26874_59 () (_ BitVec 64))
(declare-fun var1057842 () (_ BitVec 64))
(declare-fun temp26874_60 () (_ BitVec 64))
(declare-fun var1123378 () (_ BitVec 64))
(declare-fun temp26874_61 () (_ BitVec 64))
(declare-fun var1188914 () (_ BitVec 64))
(declare-fun temp26874_62 () (_ BitVec 64))
(declare-fun var78184 () (_ BitVec 64))
(assert (or (= ARGNAME_data_format_NAMEEND_STRFMT #x0000000000000000)
    (= ARGNAME_data_format_NAMEEND_STRFMT #x0000000000000001)
    (= ARGNAME_data_format_NAMEEND_STRFMT #x0000000000000002)
    (= ARGNAME_data_format_NAMEEND_STRFMT #x0000000000000003)
    (= ARGNAME_data_format_NAMEEND_STRFMT #x0000000000000004)
    (= ARGNAME_data_format_NAMEEND_STRFMT #x0000000000000005)))
(assert (= temp26874_1 #x0000000000000005))
(assert (= var77740
   (ite (= ARGNAME_input_1_NAMEEND_DIM temp26874_1)
        #x0000000000000001
        #x0000000000000000)))
(assert (= temp26874_2 #x0000000000000001))
(assert (= var77740 temp26874_2))
(assert (= temp26874_3 #x0000000000000005))
(assert (= var77770
   (ite (= ARGNAME_input_2_NAMEEND_DIM temp26874_3)
        #x0000000000000001
        #x0000000000000000)))
(assert (= temp26874_4 #x0000000000000001))
(assert (= var77770 temp26874_4))
(assert (= temp26874_5 #x0000000000000000))
(assert (= temp26874_6 (select ARGNAME_input_1_NAMEEND_DIMSIZE temp26874_5)))
(assert (= temp26874_7 #x0000000000000001))
(assert (= temp26874_8 (select ARGNAME_input_1_NAMEEND_DIMSIZE temp26874_7)))
(assert (= temp26874_9 #x0000000000000002))
(assert (= temp26874_10 (select ARGNAME_input_1_NAMEEND_DIMSIZE temp26874_9)))
(assert (= temp26874_11 #x0000000000000003))
(assert (= temp26874_12 (select ARGNAME_input_1_NAMEEND_DIMSIZE temp26874_11)))
(assert (= temp26874_13 #x0000000000000004))
(assert (= temp26874_14 (select ARGNAME_input_1_NAMEEND_DIMSIZE temp26874_13)))
(assert (= temp26874_15 #x0000000000000005))
(assert (= temp26874_16 (select ARGNAME_input_1_NAMEEND_DIMSIZE temp26874_15)))
(assert (= temp26874_17 #x0000000000000003))
(assert (= temp26874_18 (select ARGNAME_input_1_NAMEEND_DIMSIZE temp26874_17)))
(assert (= var77799 temp26874_18))
(assert (= temp26874_19 #x0000000000000000))
(assert (= temp26874_20 (select ARGNAME_input_2_NAMEEND_DIMSIZE temp26874_19)))
(assert (= temp26874_21 #x0000000000000001))
(assert (= temp26874_22 (select ARGNAME_input_2_NAMEEND_DIMSIZE temp26874_21)))
(assert (= temp26874_23 #x0000000000000002))
(assert (= temp26874_24 (select ARGNAME_input_2_NAMEEND_DIMSIZE temp26874_23)))
(assert (= temp26874_25 #x0000000000000003))
(assert (= temp26874_26 (select ARGNAME_input_2_NAMEEND_DIMSIZE temp26874_25)))
(assert (= temp26874_27 #x0000000000000004))
(assert (= temp26874_28 (select ARGNAME_input_2_NAMEEND_DIMSIZE temp26874_27)))
(assert (= temp26874_29 #x0000000000000005))
(assert (= temp26874_30 (select ARGNAME_input_2_NAMEEND_DIMSIZE temp26874_29)))
(assert (= temp26874_31 #x0000000000000004))
(assert (= temp26874_32 (select ARGNAME_input_2_NAMEEND_DIMSIZE temp26874_31)))
(assert (= var77832 temp26874_32))
(assert (= temp26874_33 #x0000000000000004))
(assert (= temp26874_34 (select ARGNAME_input_1_NAMEEND_DIMSIZE temp26874_33)))
(assert (= var77833 temp26874_34))
(assert (= var77834 (ite (= var77832 var77833) #x0000000000000001 #x0000000000000000)))
(assert (= temp26874_35 #x0000000000000001))
(assert (= var77834 temp26874_35))
(assert (= temp26874_36 #x0000000000000001))
(assert (= var275510 temp26874_36))
(assert (= temp26874_37 #x0000000000000001))
(assert (= var275528
   (ite (bvslt var275510 temp26874_37) #x0000000000000001 #x0000000000000000)))
(assert (= temp26874_38 #x0000000000000000))
(assert (= var275528 temp26874_38))
(assert (= temp26874_40 #x0000000000000000))
(assert (= temp26874_39 temp26874_40))
(assert (= temp26874_42 #x0000000000000000))
(assert (= temp26874_41 temp26874_42))
(assert (= temp26874_43 #x0000000000000001))
(assert (= var406582 temp26874_43))
(assert (= temp26874_44 #x0000000000000001))
(assert (= var406600
   (ite (bvslt var406582 temp26874_44) #x0000000000000001 #x0000000000000000)))
(assert (= temp26874_45 #x0000000000000000))
(assert (= var406600 temp26874_45))
(assert (= temp26874_46 #x0000000000000001))
(assert (= var537654 temp26874_46))
(assert (= temp26874_47 #x0000000000000001))
(assert (= var537672
   (ite (bvslt var537654 temp26874_47) #x0000000000000001 #x0000000000000000)))
(assert (= temp26874_48 #x0000000000000000))
(assert (= var537672 temp26874_48))
(assert (= temp26874_50 #x00000000000000ff))
(assert (= temp26874_49 temp26874_50))
(assert (= temp26874_52 #x00000000000000ff))
(assert (= temp26874_51 temp26874_52))
(assert (= temp26874_54 #x00000000000000ff))
(assert (= temp26874_53 temp26874_54))
(assert (= temp26874_55 #x0000000000000000))
(assert (= var795723 temp26874_55))
(assert (= var795702 var795723))
(assert (= var664608 var795702))
(assert (= temp26874_56 #x0000000000000000))
(assert (= var664608 temp26874_56))
(assert (= temp26874_57 #x0000000000000000))
(assert (= var861259 temp26874_57))
(assert (= var861238 var861259))
(assert (= var664611 var861238))
(assert (= temp26874_58 #x0000000000000000))
(assert (= var664611 temp26874_58))
(assert (= temp26874_59 #x0000000000008000))
(assert (= var1057842 temp26874_59))
(assert (= temp26874_60 #x0000000000040000))
(assert (= var1123378 temp26874_60))
(assert (= temp26874_61 #x0000000000200000))
(assert (= var1188914 temp26874_61))
(assert (= temp26874_62 #x0000000000000001))
(assert (= var78184 temp26874_62))
(model-add temp26874_1 () (_ BitVec 64) #x0000000000000005)
(model-add temp26874_2 () (_ BitVec 64) #x0000000000000001)
(model-add var77740 () (_ BitVec 64) #x0000000000000001)
(model-del k!0)
(model-add ARGNAME_input_1_NAMEEND_DIM
           ()
           (_ BitVec 64)
           (ite k!0 #x0000000000000005 (bvnot #x0000000000000005)))

